c Created with the Wolfram Language : www.wolfram.com
c 
p edge 80 298
e 1 8
e 4 9
e 3 11
e 5 13
e 2 14
e 6 14
e 8 14
e 6 15
e 13 15
e 1 16
e 13 16
e 5 17
e 5 18
e 6 18
e 14 18
e 1 19
e 2 19
e 5 19
e 8 19
e 18 20
e 4 21
e 6 21
e 7 21
e 10 21
e 2 22
e 3 22
e 7 22
e 12 22
e 16 22
e 10 23
e 11 23
e 8 24
e 17 24
e 20 25
e 8 26
e 12 26
e 13 26
e 8 27
e 21 27
e 9 28
e 4 29
e 1 31
e 8 32
e 30 32
e 3 33
e 15 33
e 32 33
e 11 34
e 19 34
e 29 34
e 31 34
e 3 35
e 26 35
e 31 35
e 1 36
e 4 36
e 7 36
e 8 36
e 12 36
e 15 36
e 23 36
e 28 36
e 4 37
e 11 37
e 20 37
e 34 37
e 4 38
e 5 38
e 9 38
e 27 38
e 29 38
e 37 38
e 7 39
e 11 39
e 16 39
e 18 39
e 32 39
e 17 40
e 8 41
e 14 41
e 17 41
e 40 41
e 2 42
e 8 42
e 17 42
e 20 42
e 33 42
e 22 43
e 29 43
e 31 43
e 38 43
e 9 44
e 26 44
e 33 44
e 3 45
e 9 45
e 25 45
e 41 45
e 1 46
e 3 46
e 20 46
e 23 46
e 37 46
e 14 47
e 29 47
e 37 47
e 7 48
e 10 48
e 12 48
e 30 48
e 33 48
e 35 48
e 8 49
e 23 49
e 28 49
e 29 49
e 43 49
e 47 49
e 1 50
e 5 50
e 22 50
e 9 51
e 1 52
e 11 52
e 37 52
e 40 52
e 45 52
e 8 53
e 21 53
e 22 53
e 27 53
e 36 53
e 11 54
e 13 54
e 26 54
e 39 54
e 46 54
e 53 54
e 2 55
e 3 55
e 18 55
e 21 55
e 27 55
e 48 55
e 13 56
e 19 56
e 33 56
e 44 56
e 1 57
e 21 57
e 33 57
e 46 57
e 4 58
e 6 58
e 10 58
e 38 58
e 45 58
e 46 58
e 17 59
e 20 59
e 26 59
e 46 59
e 53 59
e 55 59
e 8 60
e 19 60
e 24 60
e 30 60
e 12 61
e 52 61
e 54 61
e 55 61
e 56 61
e 29 62
e 43 62
e 55 62
e 4 63
e 11 63
e 20 63
e 25 63
e 48 63
e 14 64
e 19 64
e 21 64
e 34 64
e 37 64
e 42 64
e 53 64
e 60 64
e 25 65
e 31 65
e 51 65
e 63 65
e 3 66
e 11 66
e 12 66
e 18 66
e 25 66
e 34 66
e 63 66
e 64 66
e 11 67
e 35 67
e 59 67
e 1 68
e 3 68
e 4 68
e 11 68
e 21 68
e 43 68
e 23 69
e 33 69
e 53 69
e 11 70
e 13 70
e 20 70
e 23 70
e 25 70
e 28 70
e 58 70
e 8 71
e 13 71
e 20 71
e 27 71
e 42 71
e 52 71
e 55 71
e 56 71
e 61 71
e 63 71
e 65 71
e 20 72
e 36 72
e 51 72
e 66 72
e 68 72
e 29 73
e 34 73
e 37 73
e 39 73
e 52 73
e 66 73
e 9 74
e 15 74
e 25 74
e 26 74
e 29 74
e 31 74
e 35 74
e 36 74
e 44 74
e 1 75
e 4 75
e 7 75
e 15 75
e 37 75
e 40 75
e 46 75
e 49 75
e 55 75
e 3 76
e 12 76
e 23 76
e 25 76
e 37 76
e 43 76
e 50 76
e 64 76
e 68 76
e 70 76
e 71 76
e 8 77
e 13 77
e 15 77
e 26 77
e 32 77
e 35 77
e 55 77
e 56 77
e 71 77
e 3 78
e 7 78
e 14 78
e 18 78
e 54 78
e 74 78
e 12 79
e 26 79
e 33 79
e 37 79
e 38 79
e 43 79
e 48 79
e 65 79
e 66 79
e 77 79
e 10 80
e 12 80
